# Node Net
 40   1
480   1
1560   1
2460   2
3548   2
2040   2
3570   3
3121   3
3541   4
3579   4
3582   5
241   5
3060   6
3420   6
1921   7
3558   7
2700   8
1621   8
1381   9
3553   9
601  10
2580  10
 26  11
121  11
